
Log started (V12.10.0.0) Sun Apr  4 09:02:48 2021


Problem 'asset.lp' read.
Read time = 0.01 sec. (0.32 ticks)
New value for default parallel thread count: 1
New value for time limit in seconds: 300
Version identifier: 12.10.0.0 | 2019-11-26 | 843d4de
CPXPARAM_Threads                                 1
CPXPARAM_TimeLimit                               300
Found incumbent of value -0.890376 after 0.00 sec. (0.14 ticks)
Tried aggregator 3 times.
MIP Presolve eliminated 1268 rows and 798 columns.
MIP Presolve modified 2899 coefficients.
Aggregator did 717 substitutions.
Reduced MIP has 1026 rows, 1092 columns, and 4862 nonzeros.
Reduced MIP has 909 binaries, 139 generals, 0 SOSs, and 0 indicators.
Presolve time = 0.01 sec. (10.62 ticks)
Probing fixed 244 vars, tightened 51 bounds.
Probing time = 0.01 sec. (3.99 ticks)
Cover probing fixed 0 vars, tightened 87 bounds.
Tried aggregator 2 times.
MIP Presolve eliminated 378 rows and 368 columns.
MIP Presolve modified 88 coefficients.
Aggregator did 3 substitutions.
Reduced MIP has 645 rows, 720 columns, and 2740 nonzeros.
Reduced MIP has 592 binaries, 86 generals, 0 SOSs, and 0 indicators.
Presolve time = 0.01 sec. (5.14 ticks)
Probing time = 0.00 sec. (1.91 ticks)
Tried aggregator 1 time.
Detecting symmetries...
MIP Presolve modified 222 coefficients.
Reduced MIP has 645 rows, 720 columns, and 2740 nonzeros.
Reduced MIP has 592 binaries, 86 generals, 0 SOSs, and 0 indicators.
Presolve time = 0.00 sec. (1.97 ticks)
Probing time = 0.00 sec. (1.91 ticks)
Clique table members: 1878.
MIP emphasis: balance optimality and feasibility.
MIP search method: dynamic search.
Parallel mode: none, using 1 thread.
Root relaxation solution time = 0.01 sec. (6.58 ticks)

        Nodes                                         Cuts/
   Node  Left     Objective  IInf  Best Integer    Best Bound    ItCnt     Gap

*     0+    0                           -0.8904      470.7780              --- 
      0     0      325.0500   157       -0.8904      325.0500      511     --- 
      0     0      312.8149   157       -0.8904     Cuts: 261      719     --- 
      0     0      304.1488   157       -0.8904     Cuts: 227     1097     --- 
      0     0      301.3556   157       -0.8904     Cuts: 169     1215     --- 
      0     0      299.3014   157       -0.8904     Cuts: 185     1295     --- 
      0     0      298.9256   157       -0.8904     Cuts: 141     1379     --- 
Detecting symmetries...
      0     0      298.0318   157       -0.8904     Cuts: 183     1492     --- 
*     0+    0                          225.8076      298.0318            31.98%
      0     0      296.8661   157      225.8076     Cuts: 151     1615   31.47%
      0     0      296.7539   157      225.8076      Cuts: 57     1678   31.42%
      0     0      296.6836   157      225.8076     Cuts: 110     1727   31.39%
*     0+    0                          245.1360      296.6836            21.03%
      0     0      296.6472   157      245.1360      Cuts: 46     1762   21.01%
      0     0      296.5945   157      245.1360      Cuts: 44     1794   20.99%
      0     0      296.3923   157      245.1360      Cuts: 45     1873   20.91%
      0     0      296.2498   157      245.1360      Cuts: 53     1940   20.85%
      0     0      296.1191   157      245.1360     Cuts: 106     2032   20.80%
      0     0      295.9633   157      245.1360     Cuts: 207     2105   20.73%
      0     0      295.9598   157      245.1360      Cuts: 42     2121   20.73%
      0     0      295.8802   157      245.1360      Cuts: 17     2177   20.70%
      0     0      295.7654   157      245.1360     Cuts: 148     2220   20.65%
      0     0      295.7051   157      245.1360      Cuts: 52     2260   20.63%
      0     0      295.3802   157      245.1360      Cuts: 50     2307   20.50%
      0     0      295.3497   157      245.1360      Cuts: 70     2345   20.48%
Detecting symmetries...
      0     2      295.3497   163      245.1360      295.3081     2345   20.47%
Elapsed time = 0.29 sec. (287.96 ticks, tree = 0.01 MB, solutions = 2)
*    76    66      integral     0      254.8561      294.1778     4361   15.43%
*   176+  147                          254.8564      293.9750            15.35%
    179   152      284.4328   121      254.8564      293.9750     7686   15.35%
    452   394      292.4345   123      254.8564      293.8751    13903   15.31%

Performing restart 1

Repeating presolve.
Tried aggregator 1 time.
MIP Presolve eliminated 1 rows and 0 columns.
MIP Presolve modified 397 coefficients.
Reduced MIP has 644 rows, 720 columns, and 2450 nonzeros.
Reduced MIP has 592 binaries, 86 generals, 0 SOSs, and 0 indicators.
Presolve time = 0.00 sec. (2.38 ticks)
Tried aggregator 1 time.
Reduced MIP has 644 rows, 720 columns, and 2450 nonzeros.
Reduced MIP has 592 binaries, 86 generals, 0 SOSs, and 0 indicators.
Presolve time = 0.00 sec. (1.88 ticks)
Represolve time = 0.01 sec. (11.83 ticks)
    459     0      294.7432   140      254.8564     Cuts: 123    15310   15.31%
    459     0      292.4872   140      254.8564     Cuts: 118    15486   14.77%
    459     0      292.2949   140      254.8564     Cuts: 186    15643   14.69%
    459     0      291.7238   140      254.8564      Cuts: 94    15902   14.47%
    459     0      291.5560   140      254.8564     Cuts: 127    16105   14.40%
    459     0      290.5476   140      254.8564      Cuts: 90    16295   14.00%
    459     0      290.0920   140      254.8564      Cuts: 83    16421   13.83%
    459     0      289.6284   140      254.8564     Cuts: 143    16517   13.64%
    459     0      289.5685   140      254.8564      Cuts: 81    16680   13.62%
    459     0      289.5554   140      254.8564      Cuts: 69    16764   13.62%
    459     0      289.5277   140      254.8564      Cuts: 50    16853   13.60%
    459     0      289.3700   140      254.8564      Cuts: 41    16921   13.54%
    459     0      289.3334   140      254.8564      Cuts: 49    16956   13.53%
    459     0      289.3319   140      254.8564      Cuts: 28    16995   13.53%
    459     0      289.3296   140      254.8564      Cuts: 39    17044   13.53%
    459     0      289.3295   140      254.8564      Cuts: 35    17066   13.53%
    459     0      289.2481   140      254.8564      Cuts: 26    17099   13.49%
    459     0      289.1200   140      254.8564      Cuts: 36    17134   13.44%
    459     0      288.7978   140      254.8564     Cuts: 108    17300   13.32%
    459     0      288.7869   140      254.8564      Cuts: 32    17332   13.31%
*   459+    0                          256.3562      288.7869            12.65%
*   459+    0                          256.3562      288.7869            12.65%
*   459+    0                          256.3562      288.7869            12.65%
*   459+    0                          256.3567      288.7869            12.65%
    459     0        cutoff            256.3567      288.7869    17332   12.65%
    459     2      288.7869   134      256.3567      288.7540    17332   12.64%
    464     7      286.6465    91      256.3567      288.7540    17853   12.64%
*   469+   10                          256.6345      288.7540            12.52%
*   469+   10                          261.5317      288.7540            10.41%
    474    17      285.5417    78      261.5317      288.7540    18344   10.41%
*   513    44      integral     0      265.8572      288.7540    18923    8.61%
    514    44      269.3482    78      265.8572      287.4932    19047    8.14%
*   559+   76                          266.2172      286.6836             7.69%
    623   128      271.2542    78      266.2172      285.7285    21698    7.33%
*   659+   85                          271.2057      285.5417             5.29%
    704   123      274.8300    53      271.2057      285.5249    23746    5.28%
    811   202      284.3783    26      271.2057      285.0468    26590    5.10%
*   829+  150                          275.7754      285.0468             3.36%
*   869+  172                          275.7760      285.0467             3.36%
*   869+  168                          275.7762      285.0467             3.36%
*   879+  177                          275.7763      285.0467             3.36%
*   909+  198                          275.7763      285.0467             3.36%
*  1009+  280                          275.7764      285.0465             3.36%
   1223   412      284.9932    75      275.7764      285.0461    38676    3.36%
Elapsed time = 3.86 sec. (4394.33 ticks, tree = 0.26 MB, solutions = 19)
*  1409+  512                          275.7765      285.0458             3.36%
*  1414   512      integral     0      275.7765      285.0458    46090    3.36%
   1511   545      275.7779    27      275.7765      285.0454    51143    3.36%
*  1514+  545                          275.7765      285.0454             3.36%
*  1519+  547                          275.7765      285.0454             3.36%
*  1619+  565                          275.7766      285.0446             3.36%
   1750   572      277.5476    51      275.7766      284.9611    64210    3.33%
   2072   702      279.4155    29      275.7766      284.1166    77603    3.02%
   2446   820      277.8022    59      275.7766      283.5477    91803    2.82%
   2718   851      277.6186    20      275.7766      282.6262   107229    2.48%
   3025   860      277.3618    35      275.7766      281.7831   121361    2.18%
   3314   856      276.4152    94      275.7766      281.1302   135493    1.94%
   3604   780        cutoff            275.7766      280.6819   150267    1.78%
   4036   703      278.4314    61      275.7766      279.8166   164298    1.46%
   4601   563        cutoff            275.7766      279.1403   180190    1.22%
Elapsed time = 12.05 sec. (13955.46 ticks, tree = 0.48 MB, solutions = 24)

GUB cover cuts applied:  11
Clique cuts applied:  53
Cover cuts applied:  11
Implied bound cuts applied:  99
Flow cuts applied:  19
Mixed integer rounding cuts applied:  119
Zero-half cuts applied:  52
Lift and project cuts applied:  8
Gomory fractional cuts applied:  8

Root node processing (before b&c):
  Real time             =    0.29 sec. (288.43 ticks)
Sequential b&c:
  Real time             =   12.25 sec. (14228.71 ticks)
                          ------------
Total (root+branch&cut) =   12.55 sec. (14517.14 ticks)

Solution pool: 25 solutions saved.

MIP - Integer optimal, tolerance (0.0001/1e-06):  Objective =  2.7577662425e+02
Current MIP best bound =  2.7577961951e+02 (gap = 0.00299526, 0.00%)
Solution time =   12.55 sec.  Iterations = 189478  Nodes = 5106 (187)
Deterministic time = 14517.14 ticks  (1156.89 ticks/sec)


Incumbent solution
Variable Name           Solution Value
F                           285.000000
f1                            0.913376
f2                            8.310000
y55                           1.000000
y44                           1.000000
y245                          1.000000
y175                          1.000000
y120                          1.000000
y192                          1.000000
y200                          1.000000
y188                          1.000000
y39                           1.000000
y205                          1.000000
y253                          1.000000
y69                           1.000000
y150                          1.000000
y177                          1.000000
y232                          1.000000
y271                          1.000000
s24                           6.000000
s26                           6.000000
s38                           6.000000
s47                           6.000000
s52                           6.000000
s77                           6.000000
s108                          6.000000
s121                          6.000000
s129                          6.000000
s135                          6.000000
s163                          6.000000
s181                          6.000000
s184                          6.000000
s186                          6.000000
s209                          6.000000
s235                          6.000000
s236                          6.000000
s276                          6.000000
s282                          6.000000
s132                          6.030000
s70                           6.110000
s55                           6.730043
s44                           6.821698
s245                          6.615241
s21                           6.220000
s287                          6.220000
s37                           6.230000
s175                          6.414211
s176                          6.270000
s120                          6.753457
s250                          6.280000
s119                          6.290000
s167                          6.330000
s290                          6.380000
s13                           6.400000
s219                          6.410000
s57                           6.540000
s192                          7.251081
s204                          6.690000
s246                          6.730000
s17                           6.740000
s200                          6.899671
s188                          6.810000
s99                           6.850000
s174                          6.850000
s39                           7.534659
s205                          7.601945
s253                          7.790233
s67                           6.890000
s69                           7.880868
s150                          7.914433
s158                          6.950000
s273                          6.950000
s177                          7.366929
s232                          7.872893
s140                          7.000000
s10                           7.010000
s271                          7.945869
x31x192x1                     1.000000
x242x177x1                    1.000000
x34x232x1                     1.000000
x258x200x1                    2.000000
x63x39x1                      1.000000
x23x245x2                     2.000000
x138x175x2                    1.000000
x34x39x2                      1.000000
x169x175x2                    1.000000
x196x55x2                     1.000000
x227x44x2                     2.000000
x149x188x3                    2.000000
x31x192x3                     1.000000
x242x177x3                    1.000000
x196x55x3                     1.000000
x75x120x3                     2.000000
x63x205x3                     1.000000
x55x150x2                     1.000000
x55x150x3                     1.000000
x44x0x2                       2.000000
x245x253x2                    2.000000
x175x205x2                    1.000000
x175x69x2                     1.000000
x120x271x3                    2.000000
x192x0x1                      1.000000
x192x0x3                      1.000000
x200x0x1                      2.000000
x188x69x3                     1.000000
x188x232x3                    1.000000
x39x0x1                       1.000000
x39x0x2                       1.000000
x205x0x2                      1.000000
x205x0x3                      1.000000
x253x0x2                      2.000000
x69x0x2                       1.000000
x69x0x3                       1.000000
x150x0x2                      1.000000
x150x0x3                      1.000000
x177x0x1                      1.000000
x177x0x3                      1.000000
x232x0x1                      1.000000
x232x0x3                      1.000000
x271x0x3                      2.000000
s149                          5.191828
z149z188z3                    1.000000
z149z174z3                    1.000000
z149z271z3                    1.000000
s31                           5.346656
z31z192z1                     1.000000
z31z192z3                     1.000000
s242                          5.346714
z242z177z1                    1.000000
z242z177z3                    1.000000
s23                           5.087207
z23z44z2                      1.000000
z23z245z2                     1.000000
z23z253z2                     1.000000
s138                          4.923225
z138z26z2                     1.000000
z138z175z2                    1.000000
z138z119z2                    1.000000
z138z253z2                    1.000000
s34                           5.897243
z34z39z2                      1.000000
z34z232z1                     1.000000
s169                          4.504550
z169z26z2                     1.000000
z169z175z2                    1.000000
z169z119z2                    1.000000
z169z253z2                    1.000000
s258                          4.904300
z258z200z1                    1.000000
s196                          4.896240
z196z55z2                     1.000000
z196z55z3                     1.000000
z196z174z3                    1.000000
z196z271z3                    1.000000
s75                           4.859490
z75z120z3                     1.000000
z75z174z3                     1.000000
z75z158z3                     1.000000
z75z271z3                     1.000000
s227                          4.973830
z227z44z2                     1.000000
s63                           5.037110
z63z39z1                      1.000000
z63z205z3                     1.000000
z55z150z2                     1.000000
z55z150z3                     1.000000
z245z253z2                    1.000000
z175z205z2                    1.000000
z175z69z2                     1.000000
z120z271z3                    1.000000
z188z69z3                     1.000000
z188z232z3                    1.000000
All other variables in the range 1-2608 are 0.
